100
100 100
1 70 646
2 70 481
3 70 795
4 69 545
5 69 648
6 69 837
7 68 93
8 67 960
9 66 545
10 66 420
11 65 919
12 65 368
13 64 110
14 62 59
15 62 91
16 62 191
17 61 136
18 61 109
19 59 248
20 59 170
21 59 665
22 58 880
23 58 343
24 57 822
25 56 701
26 55 918
27 55 134
28 54 402
29 54 346
30 54 185
31 52 433
32 51 644
33 51 213
34 51 228
35 50 23
36 50 961
37 50 412
38 50 515
39 49 497
40 49 160
41 48 346
42 48 561
43 48 154
44 48 937
45 47 852
46 47 237
47 45 555
48 44 126
49 44 909
50 44 896
51 41 895
52 39 253
53 39 629
54 38 476
55 38 379
56 38 941
57 38 889
58 37 703
59 36 263
60 36 617
61 35 935
62 34 755
63 33 961
64 31 779
65 30 500
66 30 543
67 28 808
68 28 135
69 27 237
70 26 225
71 26 740
72 26 311
73 26 230
74 26 145
75 24 935
76 24 136
77 24 570
78 23 826
79 22 956
80 22 766
81 21 843
82 21 680
83 20 438
84 19 115
85 18 25
86 17 532
87 16 93
88 15 225
89 14 210
90 14 884
91 14 702
92 14 61
93 13 399
94 13 342
95 13 232
96 13 308
97 13 849
98 12 303
99 11 701
100 11 677
